c --- [ banner ] -------------------------------------------------------------
c 
c CaDiCaL Radically Simplified CDCL SAT Solver
c Copyright (c) 2016-2021 A. Biere, M. Fleury, N. Froleyks
c 
c Version 1.5.2 a5f15211db36c3956764e18194dd5bd63bf3b5e6
c g++ (GCC) 9.3.0 -Wall -Wextra -O3 -DNDEBUG
c Fri Oct 21 01:27:37 EDT 2022 Linux gra-login3 3.10.0-1160.66.1.el7.x86_64 x86_64
c 
c --- [ limit ] --------------------------------------------------------------
c 
c setting conflict limit to 200000 conflicts (due to '200000')
c 
c --- [ parsing input ] ------------------------------------------------------
c 
c reading DIMACS file from '33.cubes2977.adj'
c opening file to read '33.cubes2977.adj'
c found 'p cnf 6160 1595477' header
c parsed 1595477 clauses in 19.49 seconds process time
c closing file '33.cubes2977.adj'
c after reading 1457566793 bytes 1390.0 MB
c 
c --- [ options ] ------------------------------------------------------------
c 
c all options are set to their default value
c 
c --- [ solving ] ------------------------------------------------------------
c 
c time measured in process time since initialization
c 
c  seconds    reductions  redundant   irredundant
c          MB     restarts       trail       variables
c            level   conflicts       glue         remaining
c 
c * 19.49 1383  0 0   0    0    0  0% 0 1595422 2378 39%
c { 20.83 1450  0 0   0    0    0  0% 0 1595422 2378 39%
c i 20.84 1450  1 0   0    1    0 12% 0 1595422 2364 38%
c i 25.11 1522 203 0  21  155  105 27% 32 1595422 2363 38%
c i 25.88 1526 153 0  30  201  147 27% 27 1595422 2362 38%
c i 26.82 1528 139 0  30  272  212 27% 24 1595422 2359 38%
c - 31.90 1474 138 1  33  300  233 27% 26 431422 2353 38%
c i 32.41 1475 103 1  34  399  298 26% 21 431422 2352 38%
c i 32.62 1475 101 1  34  420  315 26% 21 431422 2350 38%
c i 33.08 1476 100 1  35  503  354 26% 21 431422 2349 38%
c i 34.13 1425 98 1  51  581  421 26% 24 431422 2348 38%
c i 34.36 1425 97 1  56  601  440 26% 25 431422 2347 38%
c i 34.54 1425 98 1  56  604  442 26% 25 431422 2346 38%
c i 34.72 1425 100 1  60  616  452 26% 25 431422 2325 38%
c i 35.92 1426 96 1  75  706  530 26% 26 431422 2324 38%
c i 37.06 1427 98 1  83  805  608 26% 26 431422 2323 38%
c i 37.07 1427 98 1  84  808  610 26% 26 431422 2322 38%
c i 37.12 1427 98 1  86  815  616 26% 26 431422 2321 38%
c i 38.54 1428 95 1  95  914  703 26% 27 431422 2320 38%
c i 38.68 1428 95 1  96  923  711 26% 26 431422 2319 38%
c 
c  seconds    reductions  redundant   irredundant
c          MB     restarts       trail       variables
c            level   conflicts       glue         remaining
c 
c i 38.83 1428 95 1  98  933  719 26% 28 431422 2318 38%
c i 38.89 1428 96 1  99  935  720 26% 28 431422 2317 38%
c i 39.06 1428 96 1 103  953  734 26% 28 431422 2316 38%
c i 39.21 1428 94 1 107  975  750 26% 27 431422 2315 38%
c } 39.40 1428 92 1 107 1002  764 26% 27 431422 2315 38%
c [ 39.40 1428  0 1 107 1002  764  0% 0 431422 2315 38%
c O 39.40 1428  1 1 107 1003  764 12% 0 431422 2315 38%
c i 39.40 1428  1 1 107 1003  764 12% 0 431422 2303 37%
c - 40.92 1575 20 2 107 1282  873 31% 17 384555 2303 37%
c i 41.38 1575 23 2 107 1384  955 31% 18 384555 2302 37%
c ] 41.47 1575 22 2 107 1482 1027 31% 18 384555 2302 37%
c 1 41.47 1575 22 2 107 1482 1027 31% 18 384555 2302 37%
c 
c --- [ writing output ] -----------------------------------------------------
c 
c writing simplified CNF to DIMACS file 'simp/33.cubes2977.adj.simp1'
c * 41.47 1575 22 2 107 1482 1027 31% 18 384555 2302 37%
c opening file to write 'simp/33.cubes2977.adj.simp1'
c writing 'p cnf 6160 384552' header
c closing file 'simp/33.cubes2977.adj.simp1'
c after writing 206826595 bytes 197.2 MB
c wrote 384552 clauses in 1.49 seconds process time
c 
c --- [ writing extension ] --------------------------------------------------
c 
c writing extension stack to 'simp/33.cubes2977.adj.ext1'
c opening file to write 'simp/33.cubes2977.adj.ext1'
c closing file 'simp/33.cubes2977.adj.ext1'
c after writing 10506 bytes 0.0 MB
c wrote 714 witnesses in 0.00 seconds process time
c 
c --- [ result ] -------------------------------------------------------------
c 
s SATISFIABLE
c 
c --- [ run-time profiling ] -------------------------------------------------
c 
c process time taken by individual solving procedures
c (percentage relative to process time for solving)
c 
c        21.98  100.00% search
c        19.49   88.67% parse
c        18.57   84.47% unstable
c         2.07    9.42% stable
c         1.34    6.11% lucky
c         0.00    0.00% simplify
c   =================================
c        21.98   51.16% solve
c 
c last line shows process time for solving
c (percentage relative to total process time)
c 
c --- [ statistics ] ---------------------------------------------------------
c 
c chronological:               522        35.22 %  of conflicts
c conflicts:                  1482        67.43    per second
c decisions:                 18093       823.22    per second
c fixed:                       714        11.59 %  of all variables
c learned:                    1372        92.58 %  per conflict
c learned_lits:             170405       100.00 %  learned literals
c minimized:                     0         0.00 %  learned literals
c shrunken:                  65430        38.40 %  learned literals
c minishrunken:              22656        13.30 %  learned literals
c propagations:             257314         0.01 M  per second
c reduced:                      98         6.61 %  per conflict
c rephased:                      1      1482.00    interval
c restarts:                    107        13.85    interval
c stabilizing:                   1        32.39 %  of conflicts
c subsumed:                    219         0.01 %  of all clauses
c 
c seconds are measured in process time for solving
c 
c --- [ resources ] ----------------------------------------------------------
c 
c total process time since initialization:        42.96    seconds
c total real time since initialization:           46.78    seconds
c maximum resident set size of process:         1605.15    MB
c 
c --- [ shutting down ] ------------------------------------------------------
c 
c exit 10
WARNING! DIMACS header mismatch: wrong number of variables.
============================[ Problem Statistics ]=============================
|                                                                             |
|  Number of variables:          6120                                         |
|  Number of clauses:          384552                                         |
|  Parse time:                   2.74 s                                       |
|  Simplification time:          0.07 s                                       |
|                                                                             |
============================[ Search Statistics ]====================================================
| Conflicts |          ORIGINAL         |          LEARNT          | Num Sols |      SUBGRAPHS      |
|           |    Vars  Clauses Literals |    Limit  Clauses Lit/Cl |          | Canonical Noncanon. |
=====================================================================================================
|       137 |    6028   384589 44394929 |     2000      136     73 |        0 |        28        37 |
|       294 |    6025   384596 44395050 |     2000      290     68 |        0 |        38        44 |
|       519 |    6023   384596 44395050 |     2000      513     75 |        0 |        45        44 |
|       946 |    6017   384686 44396904 |     2000      934     75 |        0 |        90       134 |
|      1456 |    6016   384690 44396992 |     2000     1443     88 |        0 |       102       138 |
|      2225 |    6014   384700 44397483 |     3592     1217     54 |        0 |       116       148 |
|      3562 |    6012   384898 44400919 |     3592     2552     82 |        0 |       155       346 |
|      5514 |    6004   385142 44405995 |     4993     2703     50 |        0 |       248       590 |
|      8172 |    6003   385238 44408544 |     6299     2871     33 |        0 |       317       686 |
|     12416 |    6001   385638 44415896 |     7553     3969     38 |        0 |       468      1086 |
|     18430 |    5994   385886 44421762 |     8775     6205     57 |        0 |       567      1334 |
|     27561 |    5991   386368 44430717 |    11198     5959     36 |        0 |       741      1816 |
|     41777 |    5987   387610 44453902 |    13612     8389     44 |        0 |      1157      3058 |
|     61918 |    5981   388290 44465429 |    16007    14323     71 |        0 |      1395      3738 |
|     93506 |    5979   390686 44508237 |    20817    10323     22 |        0 |      2196      6134 |
|    138592 |    5978   391983 44529984 |    24410    22402     57 |        0 |      2605      7431 |
|    205289 |    5978   392996 44546957 |    30415    22104     56 |        0 |      3013      8444 |
|    308340 |    5978   397521 44626174 |    37608    24948     46 |        0 |      4193     12969 |
|    458586 |    5978   399826 44677726 |    46008    30994     53 |        0 |      5245     15426 |
|    681735 |    5978   401292 44707708 |    55619    53354     64 |        0 |      5814     16892 |
|   1016009 |    5978   403041 44744044 |    68836    48845     57 |        0 |      6685     18641 |
|   1518543 |    5977   406784 44817974 |    84412    57355     57 |        0 |      7935     22387 |
|   2275286 |    5977   415345 44992282 |   103626    66912     44 |        0 |     11310     30948 |
|   3414634 |    5976   428375 45225089 |   126409   119443     69 |        0 |     15605     48022 |
=====================================================================================================
Number of solutions   : 0
Canonical subgraphs   : 17949          (5 /sec)
          order  3    : 1              (166667 /sec)
          order  4    : 1              (500000 /sec)
          order  5    : 1              (200000 /sec)
          order  6    : 1              (52632 /sec)
          order  7    : 1              (8333 /sec)
          order  8    : 2              (1357 /sec)
          order  9    : 6              (315 /sec)
          order 10    : 22             (86 /sec)
          order 11    : 83             (24 /sec)
          order 12    : 399            (7 /sec)
          order 13    : 1550           (2 /sec)
          order 14    : 6197           (6 /sec)
          order 15    : 7385           (6 /sec)
          order 16    : 2258           (6 /sec)
          order 17    : 40             (6 /sec)
          order 18    : 2              (3 /sec)
          order 19    : 0              (-nan /sec)
          order 20    : 0              (-nan /sec)
          order 21    : 0              (-nan /sec)
          order 22    : 0              (-nan /sec)
Noncanonical subgraphs: 55363          (461 /sec)
          order  3    : 0              (-nan /sec)
          order  4    : 0              (-nan /sec)
          order  5    : 0              (-nan /sec)
          order  6    : 0              (-nan /sec)
          order  7    : 0              (-nan /sec)
          order  8    : 0              (-nan /sec)
          order  9    : 0              (-nan /sec)
          order 10    : 0              (-nan /sec)
          order 11    : 0              (-nan /sec)
          order 12    : 0              (-nan /sec)
          order 13    : 5942           (8426 /sec)
          order 14    : 29349          (3117 /sec)
          order 15    : 13011          (2200 /sec)
          order 16    : 3997           (259 /sec)
          order 17    : 3062           (35 /sec)
          order 18    : 2              (42 /sec)
          order 19    : 0              (-nan /sec)
          order 20    : 0              (-nan /sec)
          order 21    : 0              (-nan /sec)
Canonicity checking   : 3364.25 s
Noncanonicity checking: 120.068 s
Total canonicity time : 3484.32 s
database reductions   : 120
restarts              : 8186
conflicts             : 4528008        (800 /sec)
decisions             : 5853283        (0.00 % random) (1034 /sec)
propagations          : 506943341      (89596 /sec)
conflict literals     : 472407330      (57.41 % deleted)
actual reward         : 0.114492
Memory used           : 613.00 MB
CPU time              : 5658.1 s

UNSATISFIABLE
